NAME : OMNETRUN
COMMENT : 524.61
TYPE : CVRP
DIMENSION : 21
EDGE_WEIGHT_TYPE : EUC_2D
CAPACITY : 21
NODE_COORD_SECTION
1 0.107093 -0.77924
2 166.386 -930.438
3 113.163 -1476.42
4 10.4598 -2002.21
5 239.928 -3011.55
6 79.6139 -3381.72
7 33.4826 -4341.97
8 149.609 -5081.97
9 233.919 -5688.86
10 385.211 -354.923
11 445.455 -2056.41
12 480.584 -2479.84
13 292.23 -3720.79
14 448.033 -4066.61
15 453.949 -4564.85
16 457.331 -5341.6
17 687.762 -75.456
18 726.996 -1454.33
19 517.06 -3375.45
20 525.684 -4990.84
21 960.005 -368.751
DEMAND_SECTION
1 0
2 1
3 1
4 1
5 1
6 1
7 1
8 1
9 1
10 1
11 1
12 1
13 1
14 1
15 1
16 1
17 1
18 1
19 1
20 1
21 1
DEPOT_SECTION
1
-1
EOF
